NAME : n60w160.004.573.tour
COMMENT : Length = 573
COMMENT : Found by LKH [Keld Helsgaun] Tue Nov  7 19:39:21 2017
TYPE : TOUR
DIMENSION : 61
TOUR_SECTION
1
50
35
46
24
42
28
3
32
2
15
51
20
13
7
37
38
55
6
12
14
27
5
34
54
57
19
25
43
59
53
44
41
4
9
33
48
18
22
30
21
45
52
8
26
23
47
56
16
49
58
10
40
36
11
31
39
17
61
60
29
-1
EOF
